
<<< setup

Tried aggregator 1 time.
LP Presolve eliminated 97 rows and 62 columns.
Reduced LP has 4 rows, 23 columns, and 23 nonzeros.
Presolve time = 0.00 sec. (0.04 ticks)

Iteration log . . .
Iteration:     1   Dual objective     =          1375.450057
main returns 0

<<< main


<<< done

